
  22   10
  10   10   10   10   10   10   10   10   10   10

   0   0   0   0   0   0   0   0   0   0   0   1 2 
   3  10  10  10  10  10  10  10  10  10  10   2 17 3 
   6  10  10  10  10  10  10  10  10  10  10   2 13 4 
   5  10  10  10  10  10  10  10  10  10  10   1 5 
   7  10  10  10  10  10  10  10  10  10  10   1 6 
   9  10  10  10  10  10  10  10  10  10  10   1 7 
   7  10  10  10  10  10  10  10  10  10  10   1 8 
   4  10  10  10  10  10  10  10  10  10  10   1 9 
   3  10  10  10  10  10  10  10  10  10  10   1 10 
  10  10  10  10  10  10  10  10  10  10  10   1 11 
   7  10  10  10  10  10  10  10  10  10  10   1 12 
   3  10  10  10  10  10  10  10  10  10  10   1 14 
   7  10  10  10  10  10  10  10  10  10  10   1 14 
   9  10  10  10  10  10  10  10  10  10  10   1 15 
   3  10  10  10  10  10  10  10  10  10  10   1 16 
   5  10  10  10  10  10  10  10  10  10  10   1 18 
   8  10  10  10  10  10  10  10  10  10  10   1 18 
   9  10  10  10  10  10  10  10  10  10  10   1 19 
   3  10  10  10  10  10  10  10  10  10  10   1 20 
  10  10  10  10  10  10  10  10  10  10  10   1 21 
   1  10  10  10  10  10  10  10  10  10  10   1 22
   0   0   0   0   0   0   0   0   0   0   0   0 
